Maximize
  - 3.0130127561312 edge_0_1_0_0 - 1.928730839085 edge_0_3_0_0
   - 1.9357757566353 edge_0_4_0_0 - 2.0714639226974 edge_0_6_0_0
   - 5.209105576459399 edge_0_7_0_0 - 2.9754374987472 edge_0_8_0_0
   - 3.9100440983301 edge_0_9_0_0 - 2.1259219195456 edge_0_10_0_0
   - 4.0643632800018 edge_0_11_0_0 - 1.0059937745484 edge_0_12_0_0
   - 4.5024062021563 edge_0_13_0_0 - 0.3020981958152573 edge_1_3_0_0
   - 0.0759046097111515 edge_1_12_0_0 - 0.0280148423882713 edge_2_7_0_0
   - 0.1106775177058958 edge_2_8_0_0 - 0.1321021847149498 edge_2_11_0_0
   - 0.1233095969922705 edge_3_1_0_0 + 3.340580178577677 edge_3_2_0_0
   - 0.2131759474630424 edge_3_4_0_0 + 0.8851836929949753 edge_3_6_0_0
   + 1.033063783637669 edge_3_7_0_0 - 0.7904853327884773 edge_3_8_0_0
   - 1.257577058998372 edge_3_9_0_0 - 0.3226868932867797 edge_3_10_0_0
   - 0.2468153590974376 edge_3_11_0_0 + 0.00893294044044134 edge_3_12_0_0
   - 1.869013776983367 edge_3_13_0_0 - 0.18316098901034 edge_3_14_0_0
   - 0.2370277383458902 edge_4_1_0_0 + 0.4220476021543593 edge_4_2_0_0
   + 0.0053283547092019 edge_4_3_0_0 + 0.00855864631613713 edge_4_5_0_0
   + 0.4545996202512162 edge_4_6_0_0 + 0.1217494650544899 edge_4_7_0_0
   + 0.1821183989845803 edge_4_8_0_0 + 0.0140545568581605 edge_4_9_0_0
   + 0.0629648316837913 edge_4_10_0_0 - 0.1000886216669238 edge_4_11_0_0
   - 0.1341213814739834 edge_4_12_0_0 - 0.2204061507805661 edge_4_13_0_0
   + 0.61088128097304 edge_4_14_0_0 - 0.1386661308827357 edge_5_4_0_0
   + 0.1007048923947388 edge_5_6_0_0 + 0.1277801006119457 edge_5_7_0_0
   + 0.9324932398388563 edge_6_2_0_0 + 1.64840256853044 edge_6_3_0_0
   + 1.856407311048015 edge_6_4_0_0 - 0.0830407186975367 edge_6_5_0_0
   + 1.752372317386629 edge_6_7_0_0 + 0.5931108317409162 edge_6_8_0_0
   - 0.0746589292060712 edge_6_9_0_0 + 1.2143550912175 edge_6_11_0_0
   - 0.2497632225658374 edge_6_12_0_0 + 0.3310697289569297 edge_6_13_0_0
   + 1.7549339576868 edge_6_14_0_0 + 0.0359066935568849 edge_7_2_0_0
   - 1.233847026878674 edge_7_3_0_0 + 0.0585403795364454 edge_7_4_0_0
   + 0.4044757900090869 edge_7_5_0_0 + 0.4801100629695725 edge_7_6_0_0
   + 0.0643843849350849 edge_7_8_0_0 - 0.0840286007380523 edge_7_9_0_0
   - 0.618333765968351 edge_7_11_0_0 - 0.40629511622469 edge_7_14_0_0
   + 0.195024956241732 edge_8_2_0_0 - 0.7735300848721578 edge_8_3_0_0
   - 0.0314036896127652 edge_8_4_0_0 - 0.2304431949840569 edge_8_6_0_0
   + 1.106985518192108 edge_8_7_0_0 + 0.6713645808175827 edge_8_9_0_0
   + 0.6079717150371693 edge_8_10_0_0 + 1.182804828643981 edge_8_11_0_0
   + 0.0183507370410322 edge_8_12_0_0 + 0.2182447112029743 edge_8_13_0_0
   + 1.3752066009024 edge_8_14_0_0 + 0.4514565225584774 edge_9_2_0_0
   - 1.109966669140696 edge_9_3_0_0 + 0.1841235922851004 edge_9_4_0_0
   - 0.6425006931011182 edge_9_5_0_0 - 0.1846417578472636 edge_9_6_0_0
   + 0.315992380779569 edge_9_7_0_0 + 0.4214388282046669 edge_9_8_0_0
   + 1.350499509080238 edge_9_10_0_0 + 1.580947417904816 edge_9_11_0_0
   - 0.2726783950609892 edge_9_12_0_0 + 0.8882417440755497 edge_9_13_0_0
   + 1.2241694676582 edge_9_14_0_0 - 0.0454988611772591 edge_10_1_0_0
   + 0.899871170858998 edge_10_2_0_0 + 0.0237040716483359 edge_10_3_0_0
   + 0.4712616962953473 edge_10_4_0_0 - 0.3640528878845595 edge_10_5_0_0
   - 0.1499245487615815 edge_10_6_0_0 + 0.5711521200508188 edge_10_7_0_0
   + 1.08615786920838 edge_10_8_0_0 + 2.464526728496839 edge_10_9_0_0
   + 0.2477765604721157 edge_10_10_0_0 + 0.6101825856261786 edge_10_11_0_0
   + 0.084437527861972 edge_10_12_0_0 - 0.2781999799210005 edge_11_1_0_0
   - 0.0136012464973605 edge_11_2_0_0 - 0.2184393927098466 edge_11_3_0_0
   - 0.1901948088507929 edge_11_4_0_0 - 0.7257014139683086 edge_11_5_0_0
   - 0.0189353611342707 edge_11_6_0_0 - 0.0733984246755756 edge_11_7_0_0
   + 0.8826207275592899 edge_11_8_0_0 + 3.608244656508861 edge_11_9_0_0
   + 0.1240448185310307 edge_11_10_0_0 + 0.00898654736047661 edge_11_12_0_0
   + 1.899918415517711 edge_11_13_0_0 + 1.687772631066 edge_11_14_0_0
   + 0.2070748161024535 edge_12_1_0_0 - 0.1841747461154214 edge_12_2_0_0
   + 0.3065951483422363 edge_12_3_0_0 + 0.0362849740590787 edge_12_4_0_0
   - 0.3391582951873708 edge_12_5_0_0 - 0.0863850270356274 edge_12_6_0_0
   - 0.0901555387597713 edge_12_7_0_0 - 0.264334160697655 edge_12_8_0_0
   - 0.2760146122055961 edge_12_9_0_0 + 0.371406207789599 edge_12_10_0_0
   + 0.1199130946648496 edge_12_11_0_0 + 0.2566822710205461 edge_12_13_0_0
   - 0.13991423621886 edge_12_14_0_0 - 1.134553378440693 edge_13_3_0_0
   - 0.3227400718184776 edge_13_4_0_0 - 0.6076847014658027 edge_13_6_0_0
   + 0.3058388559099079 edge_13_7_0_0 + 0.00969499425332119 edge_13_8_0_0
   + 0.4857993128955937 edge_13_9_0_0 + 0.3736525881040642 edge_13_11_0_0
   + 2.914482444202485 edge_13_12_0_0 + 1.3444592832115 edge_13_14_0_0
   - 0.62208892676754 edge_14_12_0_0 - 0.18339262566465 edge_14_13_0_0
Subject To
 one_parent_1: edge_0_1_0_0 + edge_3_1_0_0 + edge_4_1_0_0 + edge_10_1_0_0
   + edge_11_1_0_0 + edge_12_1_0_0 = 1
 consume_one_flow_unit_1: flow_0_1_0_0 - flow_1_3_0_0 - flow_1_12_0_0
   + flow_3_1_0_0 + flow_4_1_0_0 + flow_10_1_0_0 + flow_11_1_0_0
   + flow_12_1_0_0 = 1
 one_parent_2: edge_3_2_0_0 + edge_4_2_0_0 + edge_6_2_0_0 + edge_7_2_0_0
   + edge_8_2_0_0 + edge_9_2_0_0 + edge_10_2_0_0 + edge_11_2_0_0
   + edge_12_2_0_0 = 1
 consume_one_flow_unit_2: - flow_2_7_0_0 - flow_2_8_0_0 - flow_2_11_0_0
   + flow_3_2_0_0 + flow_4_2_0_0 + flow_6_2_0_0 + flow_7_2_0_0
   + flow_8_2_0_0 + flow_9_2_0_0 + flow_10_2_0_0 + flow_11_2_0_0
   + flow_12_2_0_0 = 1
 one_parent_3: edge_0_3_0_0 + edge_1_3_0_0 + edge_4_3_0_0 + edge_6_3_0_0
   + edge_7_3_0_0 + edge_8_3_0_0 + edge_9_3_0_0 + edge_10_3_0_0
   + edge_11_3_0_0 + edge_12_3_0_0 + edge_13_3_0_0 = 1
 consume_one_flow_unit_3: flow_0_3_0_0 + flow_1_3_0_0 - flow_3_1_0_0
   - flow_3_2_0_0 - flow_3_4_0_0 - flow_3_6_0_0 - flow_3_7_0_0
   - flow_3_8_0_0 - flow_3_9_0_0 - flow_3_10_0_0 - flow_3_11_0_0
   - flow_3_12_0_0 - flow_3_13_0_0 - flow_3_14_0_0 + flow_4_3_0_0
   + flow_6_3_0_0 + flow_7_3_0_0 + flow_8_3_0_0 + flow_9_3_0_0
   + flow_10_3_0_0 + flow_11_3_0_0 + flow_12_3_0_0 + flow_13_3_0_0 = 1
 one_parent_4: edge_0_4_0_0 + edge_3_4_0_0 + edge_5_4_0_0 + edge_6_4_0_0
   + edge_7_4_0_0 + edge_8_4_0_0 + edge_9_4_0_0 + edge_10_4_0_0
   + edge_11_4_0_0 + edge_12_4_0_0 + edge_13_4_0_0 = 1
 consume_one_flow_unit_4: flow_0_4_0_0 + flow_3_4_0_0 - flow_4_1_0_0
   - flow_4_2_0_0 - flow_4_3_0_0 - flow_4_5_0_0 - flow_4_6_0_0
   - flow_4_7_0_0 - flow_4_8_0_0 - flow_4_9_0_0 - flow_4_10_0_0
   - flow_4_11_0_0 - flow_4_12_0_0 - flow_4_13_0_0 - flow_4_14_0_0
   + flow_5_4_0_0 + flow_6_4_0_0 + flow_7_4_0_0 + flow_8_4_0_0
   + flow_9_4_0_0 + flow_10_4_0_0 + flow_11_4_0_0 + flow_12_4_0_0
   + flow_13_4_0_0 = 1
 one_parent_5: edge_4_5_0_0 + edge_6_5_0_0 + edge_7_5_0_0 + edge_9_5_0_0
   + edge_10_5_0_0 + edge_11_5_0_0 + edge_12_5_0_0 = 1
 consume_one_flow_unit_5: flow_4_5_0_0 - flow_5_4_0_0 - flow_5_6_0_0
   - flow_5_7_0_0 + flow_6_5_0_0 + flow_7_5_0_0 + flow_9_5_0_0
   + flow_10_5_0_0 + flow_11_5_0_0 + flow_12_5_0_0 = 1
 one_parent_6: edge_0_6_0_0 + edge_3_6_0_0 + edge_4_6_0_0 + edge_5_6_0_0
   + edge_7_6_0_0 + edge_8_6_0_0 + edge_9_6_0_0 + edge_10_6_0_0
   + edge_11_6_0_0 + edge_12_6_0_0 + edge_13_6_0_0 = 1
 consume_one_flow_unit_6: flow_0_6_0_0 + flow_3_6_0_0 + flow_4_6_0_0
   + flow_5_6_0_0 - flow_6_2_0_0 - flow_6_3_0_0 - flow_6_4_0_0
   - flow_6_5_0_0 - flow_6_7_0_0 - flow_6_8_0_0 - flow_6_9_0_0
   - flow_6_11_0_0 - flow_6_12_0_0 - flow_6_13_0_0 - flow_6_14_0_0
   + flow_7_6_0_0 + flow_8_6_0_0 + flow_9_6_0_0 + flow_10_6_0_0
   + flow_11_6_0_0 + flow_12_6_0_0 + flow_13_6_0_0 = 1
 one_parent_7: edge_0_7_0_0 + edge_2_7_0_0 + edge_3_7_0_0 + edge_4_7_0_0
   + edge_5_7_0_0 + edge_6_7_0_0 + edge_8_7_0_0 + edge_9_7_0_0
   + edge_10_7_0_0 + edge_11_7_0_0 + edge_12_7_0_0 + edge_13_7_0_0 = 1
 consume_one_flow_unit_7: flow_0_7_0_0 + flow_2_7_0_0 + flow_3_7_0_0
   + flow_4_7_0_0 + flow_5_7_0_0 + flow_6_7_0_0 - flow_7_2_0_0
   - flow_7_3_0_0 - flow_7_4_0_0 - flow_7_5_0_0 - flow_7_6_0_0
   - flow_7_8_0_0 - flow_7_9_0_0 - flow_7_11_0_0 - flow_7_14_0_0
   + flow_8_7_0_0 + flow_9_7_0_0 + flow_10_7_0_0 + flow_11_7_0_0
   + flow_12_7_0_0 + flow_13_7_0_0 = 1
 one_parent_8: edge_0_8_0_0 + edge_2_8_0_0 + edge_3_8_0_0 + edge_4_8_0_0
   + edge_6_8_0_0 + edge_7_8_0_0 + edge_9_8_0_0 + edge_10_8_0_0
   + edge_11_8_0_0 + edge_12_8_0_0 + edge_13_8_0_0 = 1
 consume_one_flow_unit_8: flow_0_8_0_0 + flow_2_8_0_0 + flow_3_8_0_0
   + flow_4_8_0_0 + flow_6_8_0_0 + flow_7_8_0_0 - flow_8_2_0_0
   - flow_8_3_0_0 - flow_8_4_0_0 - flow_8_6_0_0 - flow_8_7_0_0
   - flow_8_9_0_0 - flow_8_10_0_0 - flow_8_11_0_0 - flow_8_12_0_0
   - flow_8_13_0_0 - flow_8_14_0_0 + flow_9_8_0_0 + flow_10_8_0_0
   + flow_11_8_0_0 + flow_12_8_0_0 + flow_13_8_0_0 = 1
 one_parent_9: edge_0_9_0_0 + edge_3_9_0_0 + edge_4_9_0_0 + edge_6_9_0_0
   + edge_7_9_0_0 + edge_8_9_0_0 + edge_10_9_0_0 + edge_11_9_0_0
   + edge_12_9_0_0 + edge_13_9_0_0 = 1
 consume_one_flow_unit_9: flow_0_9_0_0 + flow_3_9_0_0 + flow_4_9_0_0
   + flow_6_9_0_0 + flow_7_9_0_0 + flow_8_9_0_0 - flow_9_2_0_0
   - flow_9_3_0_0 - flow_9_4_0_0 - flow_9_5_0_0 - flow_9_6_0_0
   - flow_9_7_0_0 - flow_9_8_0_0 - flow_9_10_0_0 - flow_9_11_0_0
   - flow_9_12_0_0 - flow_9_13_0_0 - flow_9_14_0_0 + flow_10_9_0_0
   + flow_11_9_0_0 + flow_12_9_0_0 + flow_13_9_0_0 = 1
 one_parent_10: edge_0_10_0_0 + edge_3_10_0_0 + edge_4_10_0_0
   + edge_8_10_0_0 + edge_9_10_0_0 + edge_10_10_0_0 + edge_11_10_0_0
   + edge_12_10_0_0 = 1
 consume_one_flow_unit_10: flow_0_10_0_0 + flow_3_10_0_0 + flow_4_10_0_0
   + flow_8_10_0_0 + flow_9_10_0_0 - flow_10_1_0_0 - flow_10_2_0_0
   - flow_10_3_0_0 - flow_10_4_0_0 - flow_10_5_0_0 - flow_10_6_0_0
   - flow_10_7_0_0 - flow_10_8_0_0 - flow_10_9_0_0 - flow_10_11_0_0
   - flow_10_12_0_0 + flow_11_10_0_0 + flow_12_10_0_0 = 1
 one_parent_11: edge_0_11_0_0 + edge_2_11_0_0 + edge_3_11_0_0
   + edge_4_11_0_0 + edge_6_11_0_0 + edge_7_11_0_0 + edge_8_11_0_0
   + edge_9_11_0_0 + edge_10_11_0_0 + edge_12_11_0_0 + edge_13_11_0_0 = 1
 consume_one_flow_unit_11: flow_0_11_0_0 + flow_2_11_0_0 + flow_3_11_0_0
   + flow_4_11_0_0 + flow_6_11_0_0 + flow_7_11_0_0 + flow_8_11_0_0
   + flow_9_11_0_0 + flow_10_11_0_0 - flow_11_1_0_0 - flow_11_2_0_0
   - flow_11_3_0_0 - flow_11_4_0_0 - flow_11_5_0_0 - flow_11_6_0_0
   - flow_11_7_0_0 - flow_11_8_0_0 - flow_11_9_0_0 - flow_11_10_0_0
   - flow_11_12_0_0 - flow_11_13_0_0 - flow_11_14_0_0 + flow_12_11_0_0
   + flow_13_11_0_0 = 1
 one_parent_12: edge_0_12_0_0 + edge_1_12_0_0 + edge_3_12_0_0
   + edge_4_12_0_0 + edge_6_12_0_0 + edge_8_12_0_0 + edge_9_12_0_0
   + edge_10_12_0_0 + edge_11_12_0_0 + edge_13_12_0_0 + edge_14_12_0_0 = 1
 consume_one_flow_unit_12: flow_0_12_0_0 + flow_1_12_0_0 + flow_3_12_0_0
   + flow_4_12_0_0 + flow_6_12_0_0 + flow_8_12_0_0 + flow_9_12_0_0
   + flow_10_12_0_0 + flow_11_12_0_0 - flow_12_1_0_0 - flow_12_2_0_0
   - flow_12_3_0_0 - flow_12_4_0_0 - flow_12_5_0_0 - flow_12_6_0_0
   - flow_12_7_0_0 - flow_12_8_0_0 - flow_12_9_0_0 - flow_12_10_0_0
   - flow_12_11_0_0 - flow_12_13_0_0 - flow_12_14_0_0 + flow_13_12_0_0
   + flow_14_12_0_0 = 1
 one_parent_13: edge_0_13_0_0 + edge_3_13_0_0 + edge_4_13_0_0
   + edge_6_13_0_0 + edge_8_13_0_0 + edge_9_13_0_0 + edge_11_13_0_0
   + edge_12_13_0_0 + edge_14_13_0_0 = 1
 consume_one_flow_unit_13: flow_0_13_0_0 + flow_3_13_0_0 + flow_4_13_0_0
   + flow_6_13_0_0 + flow_8_13_0_0 + flow_9_13_0_0 + flow_11_13_0_0
   + flow_12_13_0_0 - flow_13_3_0_0 - flow_13_4_0_0 - flow_13_6_0_0
   - flow_13_7_0_0 - flow_13_8_0_0 - flow_13_9_0_0 - flow_13_11_0_0
   - flow_13_12_0_0 - flow_13_14_0_0 + flow_14_13_0_0 = 1
 one_parent_14: edge_3_14_0_0 + edge_4_14_0_0 + edge_6_14_0_0
   + edge_7_14_0_0 + edge_8_14_0_0 + edge_9_14_0_0 + edge_11_14_0_0
   + edge_12_14_0_0 + edge_13_14_0_0 = 1
 consume_one_flow_unit_14: flow_3_14_0_0 + flow_4_14_0_0 + flow_6_14_0_0
   + flow_7_14_0_0 + flow_8_14_0_0 + flow_9_14_0_0 + flow_11_14_0_0
   + flow_12_14_0_0 + flow_13_14_0_0 - flow_14_12_0_0 - flow_14_13_0_0 = 1
 root_flow: flow_0_1_0_0 + flow_0_3_0_0 + flow_0_4_0_0 + flow_0_6_0_0
   + flow_0_7_0_0 + flow_0_8_0_0 + flow_0_9_0_0 + flow_0_10_0_0
   + flow_0_11_0_0 + flow_0_12_0_0 + flow_0_13_0_0 = 14
 inactive_no_flow_0_1_0_0: flow_0_1_0_0 - 1000 edge_0_1_0_0 <= 0
 inactive_no_flow_0_3_0_0: flow_0_3_0_0 - 1000 edge_0_3_0_0 <= 0
 inactive_no_flow_0_4_0_0: flow_0_4_0_0 - 1000 edge_0_4_0_0 <= 0
 inactive_no_flow_0_6_0_0: flow_0_6_0_0 - 1000 edge_0_6_0_0 <= 0
 inactive_no_flow_0_7_0_0: flow_0_7_0_0 - 1000 edge_0_7_0_0 <= 0
 inactive_no_flow_0_8_0_0: flow_0_8_0_0 - 1000 edge_0_8_0_0 <= 0
 inactive_no_flow_0_9_0_0: flow_0_9_0_0 - 1000 edge_0_9_0_0 <= 0
 inactive_no_flow_0_10_0_0: flow_0_10_0_0 - 1000 edge_0_10_0_0 <= 0
 inactive_no_flow_0_11_0_0: flow_0_11_0_0 - 1000 edge_0_11_0_0 <= 0
 inactive_no_flow_0_12_0_0: flow_0_12_0_0 - 1000 edge_0_12_0_0 <= 0
 inactive_no_flow_0_13_0_0: flow_0_13_0_0 - 1000 edge_0_13_0_0 <= 0
 inactive_no_flow_1_3_0_0: flow_1_3_0_0 - 1000 edge_1_3_0_0 <= 0
 inactive_no_flow_1_12_0_0: flow_1_12_0_0 - 1000 edge_1_12_0_0 <= 0
 inactive_no_flow_2_7_0_0: flow_2_7_0_0 - 1000 edge_2_7_0_0 <= 0
 inactive_no_flow_2_8_0_0: flow_2_8_0_0 - 1000 edge_2_8_0_0 <= 0
 inactive_no_flow_2_11_0_0: flow_2_11_0_0 - 1000 edge_2_11_0_0 <= 0
 inactive_no_flow_3_1_0_0: flow_3_1_0_0 - 1000 edge_3_1_0_0 <= 0
 inactive_no_flow_3_2_0_0: flow_3_2_0_0 - 1000 edge_3_2_0_0 <= 0
 inactive_no_flow_3_4_0_0: flow_3_4_0_0 - 1000 edge_3_4_0_0 <= 0
 inactive_no_flow_3_6_0_0: flow_3_6_0_0 - 1000 edge_3_6_0_0 <= 0
 inactive_no_flow_3_7_0_0: flow_3_7_0_0 - 1000 edge_3_7_0_0 <= 0
 inactive_no_flow_3_8_0_0: flow_3_8_0_0 - 1000 edge_3_8_0_0 <= 0
 inactive_no_flow_3_9_0_0: flow_3_9_0_0 - 1000 edge_3_9_0_0 <= 0
 inactive_no_flow_3_10_0_0: flow_3_10_0_0 - 1000 edge_3_10_0_0 <= 0
 inactive_no_flow_3_11_0_0: flow_3_11_0_0 - 1000 edge_3_11_0_0 <= 0
 inactive_no_flow_3_12_0_0: flow_3_12_0_0 - 1000 edge_3_12_0_0 <= 0
 inactive_no_flow_3_13_0_0: flow_3_13_0_0 - 1000 edge_3_13_0_0 <= 0
 inactive_no_flow_3_14_0_0: flow_3_14_0_0 - 1000 edge_3_14_0_0 <= 0
 inactive_no_flow_4_1_0_0: flow_4_1_0_0 - 1000 edge_4_1_0_0 <= 0
 inactive_no_flow_4_2_0_0: flow_4_2_0_0 - 1000 edge_4_2_0_0 <= 0
 inactive_no_flow_4_3_0_0: flow_4_3_0_0 - 1000 edge_4_3_0_0 <= 0
 inactive_no_flow_4_5_0_0: flow_4_5_0_0 - 1000 edge_4_5_0_0 <= 0
 inactive_no_flow_4_6_0_0: flow_4_6_0_0 - 1000 edge_4_6_0_0 <= 0
 inactive_no_flow_4_7_0_0: flow_4_7_0_0 - 1000 edge_4_7_0_0 <= 0
 inactive_no_flow_4_8_0_0: flow_4_8_0_0 - 1000 edge_4_8_0_0 <= 0
 inactive_no_flow_4_9_0_0: flow_4_9_0_0 - 1000 edge_4_9_0_0 <= 0
 inactive_no_flow_4_10_0_0: flow_4_10_0_0 - 1000 edge_4_10_0_0 <= 0
 inactive_no_flow_4_11_0_0: flow_4_11_0_0 - 1000 edge_4_11_0_0 <= 0
 inactive_no_flow_4_12_0_0: flow_4_12_0_0 - 1000 edge_4_12_0_0 <= 0
 inactive_no_flow_4_13_0_0: flow_4_13_0_0 - 1000 edge_4_13_0_0 <= 0
 inactive_no_flow_4_14_0_0: flow_4_14_0_0 - 1000 edge_4_14_0_0 <= 0
 inactive_no_flow_5_4_0_0: flow_5_4_0_0 - 1000 edge_5_4_0_0 <= 0
 inactive_no_flow_5_6_0_0: flow_5_6_0_0 - 1000 edge_5_6_0_0 <= 0
 inactive_no_flow_5_7_0_0: flow_5_7_0_0 - 1000 edge_5_7_0_0 <= 0
 inactive_no_flow_6_2_0_0: flow_6_2_0_0 - 1000 edge_6_2_0_0 <= 0
 inactive_no_flow_6_3_0_0: flow_6_3_0_0 - 1000 edge_6_3_0_0 <= 0
 inactive_no_flow_6_4_0_0: flow_6_4_0_0 - 1000 edge_6_4_0_0 <= 0
 inactive_no_flow_6_5_0_0: flow_6_5_0_0 - 1000 edge_6_5_0_0 <= 0
 inactive_no_flow_6_7_0_0: flow_6_7_0_0 - 1000 edge_6_7_0_0 <= 0
 inactive_no_flow_6_8_0_0: flow_6_8_0_0 - 1000 edge_6_8_0_0 <= 0
 inactive_no_flow_6_9_0_0: flow_6_9_0_0 - 1000 edge_6_9_0_0 <= 0
 inactive_no_flow_6_11_0_0: flow_6_11_0_0 - 1000 edge_6_11_0_0 <= 0
 inactive_no_flow_6_12_0_0: flow_6_12_0_0 - 1000 edge_6_12_0_0 <= 0
 inactive_no_flow_6_13_0_0: flow_6_13_0_0 - 1000 edge_6_13_0_0 <= 0
 inactive_no_flow_6_14_0_0: flow_6_14_0_0 - 1000 edge_6_14_0_0 <= 0
 inactive_no_flow_7_2_0_0: flow_7_2_0_0 - 1000 edge_7_2_0_0 <= 0
 inactive_no_flow_7_3_0_0: flow_7_3_0_0 - 1000 edge_7_3_0_0 <= 0
 inactive_no_flow_7_4_0_0: flow_7_4_0_0 - 1000 edge_7_4_0_0 <= 0
 inactive_no_flow_7_5_0_0: flow_7_5_0_0 - 1000 edge_7_5_0_0 <= 0
 inactive_no_flow_7_6_0_0: flow_7_6_0_0 - 1000 edge_7_6_0_0 <= 0
 inactive_no_flow_7_8_0_0: flow_7_8_0_0 - 1000 edge_7_8_0_0 <= 0
 inactive_no_flow_7_9_0_0: flow_7_9_0_0 - 1000 edge_7_9_0_0 <= 0
 inactive_no_flow_7_11_0_0: flow_7_11_0_0 - 1000 edge_7_11_0_0 <= 0
 inactive_no_flow_7_14_0_0: flow_7_14_0_0 - 1000 edge_7_14_0_0 <= 0
 inactive_no_flow_8_2_0_0: flow_8_2_0_0 - 1000 edge_8_2_0_0 <= 0
 inactive_no_flow_8_3_0_0: flow_8_3_0_0 - 1000 edge_8_3_0_0 <= 0
 inactive_no_flow_8_4_0_0: flow_8_4_0_0 - 1000 edge_8_4_0_0 <= 0
 inactive_no_flow_8_6_0_0: flow_8_6_0_0 - 1000 edge_8_6_0_0 <= 0
 inactive_no_flow_8_7_0_0: flow_8_7_0_0 - 1000 edge_8_7_0_0 <= 0
 inactive_no_flow_8_9_0_0: flow_8_9_0_0 - 1000 edge_8_9_0_0 <= 0
 inactive_no_flow_8_10_0_0: flow_8_10_0_0 - 1000 edge_8_10_0_0 <= 0
 inactive_no_flow_8_11_0_0: flow_8_11_0_0 - 1000 edge_8_11_0_0 <= 0
 inactive_no_flow_8_12_0_0: flow_8_12_0_0 - 1000 edge_8_12_0_0 <= 0
 inactive_no_flow_8_13_0_0: flow_8_13_0_0 - 1000 edge_8_13_0_0 <= 0
 inactive_no_flow_8_14_0_0: flow_8_14_0_0 - 1000 edge_8_14_0_0 <= 0
 inactive_no_flow_9_2_0_0: flow_9_2_0_0 - 1000 edge_9_2_0_0 <= 0
 inactive_no_flow_9_3_0_0: flow_9_3_0_0 - 1000 edge_9_3_0_0 <= 0
 inactive_no_flow_9_4_0_0: flow_9_4_0_0 - 1000 edge_9_4_0_0 <= 0
 inactive_no_flow_9_5_0_0: flow_9_5_0_0 - 1000 edge_9_5_0_0 <= 0
 inactive_no_flow_9_6_0_0: flow_9_6_0_0 - 1000 edge_9_6_0_0 <= 0
 inactive_no_flow_9_7_0_0: flow_9_7_0_0 - 1000 edge_9_7_0_0 <= 0
 inactive_no_flow_9_8_0_0: flow_9_8_0_0 - 1000 edge_9_8_0_0 <= 0
 inactive_no_flow_9_10_0_0: flow_9_10_0_0 - 1000 edge_9_10_0_0 <= 0
 inactive_no_flow_9_11_0_0: flow_9_11_0_0 - 1000 edge_9_11_0_0 <= 0
 inactive_no_flow_9_12_0_0: flow_9_12_0_0 - 1000 edge_9_12_0_0 <= 0
 inactive_no_flow_9_13_0_0: flow_9_13_0_0 - 1000 edge_9_13_0_0 <= 0
 inactive_no_flow_9_14_0_0: flow_9_14_0_0 - 1000 edge_9_14_0_0 <= 0
 inactive_no_flow_10_1_0_0: flow_10_1_0_0 - 1000 edge_10_1_0_0 <= 0
 inactive_no_flow_10_2_0_0: flow_10_2_0_0 - 1000 edge_10_2_0_0 <= 0
 inactive_no_flow_10_3_0_0: flow_10_3_0_0 - 1000 edge_10_3_0_0 <= 0
 inactive_no_flow_10_4_0_0: flow_10_4_0_0 - 1000 edge_10_4_0_0 <= 0
 inactive_no_flow_10_5_0_0: flow_10_5_0_0 - 1000 edge_10_5_0_0 <= 0
 inactive_no_flow_10_6_0_0: flow_10_6_0_0 - 1000 edge_10_6_0_0 <= 0
 inactive_no_flow_10_7_0_0: flow_10_7_0_0 - 1000 edge_10_7_0_0 <= 0
 inactive_no_flow_10_8_0_0: flow_10_8_0_0 - 1000 edge_10_8_0_0 <= 0
 inactive_no_flow_10_9_0_0: flow_10_9_0_0 - 1000 edge_10_9_0_0 <= 0
 inactive_no_flow_10_10_0_0: flow_10_10_0_0 - 1000 edge_10_10_0_0 <= 0
 inactive_no_flow_10_11_0_0: flow_10_11_0_0 - 1000 edge_10_11_0_0 <= 0
 inactive_no_flow_10_12_0_0: flow_10_12_0_0 - 1000 edge_10_12_0_0 <= 0
 inactive_no_flow_11_1_0_0: flow_11_1_0_0 - 1000 edge_11_1_0_0 <= 0
 inactive_no_flow_11_2_0_0: flow_11_2_0_0 - 1000 edge_11_2_0_0 <= 0
 inactive_no_flow_11_3_0_0: flow_11_3_0_0 - 1000 edge_11_3_0_0 <= 0
 inactive_no_flow_11_4_0_0: flow_11_4_0_0 - 1000 edge_11_4_0_0 <= 0
 inactive_no_flow_11_5_0_0: flow_11_5_0_0 - 1000 edge_11_5_0_0 <= 0
 inactive_no_flow_11_6_0_0: flow_11_6_0_0 - 1000 edge_11_6_0_0 <= 0
 inactive_no_flow_11_7_0_0: flow_11_7_0_0 - 1000 edge_11_7_0_0 <= 0
 inactive_no_flow_11_8_0_0: flow_11_8_0_0 - 1000 edge_11_8_0_0 <= 0
 inactive_no_flow_11_9_0_0: flow_11_9_0_0 - 1000 edge_11_9_0_0 <= 0
 inactive_no_flow_11_10_0_0: flow_11_10_0_0 - 1000 edge_11_10_0_0 <= 0
 inactive_no_flow_11_12_0_0: flow_11_12_0_0 - 1000 edge_11_12_0_0 <= 0
 inactive_no_flow_11_13_0_0: flow_11_13_0_0 - 1000 edge_11_13_0_0 <= 0
 inactive_no_flow_11_14_0_0: flow_11_14_0_0 - 1000 edge_11_14_0_0 <= 0
 inactive_no_flow_12_1_0_0: flow_12_1_0_0 - 1000 edge_12_1_0_0 <= 0
 inactive_no_flow_12_2_0_0: flow_12_2_0_0 - 1000 edge_12_2_0_0 <= 0
 inactive_no_flow_12_3_0_0: flow_12_3_0_0 - 1000 edge_12_3_0_0 <= 0
 inactive_no_flow_12_4_0_0: flow_12_4_0_0 - 1000 edge_12_4_0_0 <= 0
 inactive_no_flow_12_5_0_0: flow_12_5_0_0 - 1000 edge_12_5_0_0 <= 0
 inactive_no_flow_12_6_0_0: flow_12_6_0_0 - 1000 edge_12_6_0_0 <= 0
 inactive_no_flow_12_7_0_0: flow_12_7_0_0 - 1000 edge_12_7_0_0 <= 0
 inactive_no_flow_12_8_0_0: flow_12_8_0_0 - 1000 edge_12_8_0_0 <= 0
 inactive_no_flow_12_9_0_0: flow_12_9_0_0 - 1000 edge_12_9_0_0 <= 0
 inactive_no_flow_12_10_0_0: flow_12_10_0_0 - 1000 edge_12_10_0_0 <= 0
 inactive_no_flow_12_11_0_0: flow_12_11_0_0 - 1000 edge_12_11_0_0 <= 0
 inactive_no_flow_12_13_0_0: flow_12_13_0_0 - 1000 edge_12_13_0_0 <= 0
 inactive_no_flow_12_14_0_0: flow_12_14_0_0 - 1000 edge_12_14_0_0 <= 0
 inactive_no_flow_13_3_0_0: flow_13_3_0_0 - 1000 edge_13_3_0_0 <= 0
 inactive_no_flow_13_4_0_0: flow_13_4_0_0 - 1000 edge_13_4_0_0 <= 0
 inactive_no_flow_13_6_0_0: flow_13_6_0_0 - 1000 edge_13_6_0_0 <= 0
 inactive_no_flow_13_7_0_0: flow_13_7_0_0 - 1000 edge_13_7_0_0 <= 0
 inactive_no_flow_13_8_0_0: flow_13_8_0_0 - 1000 edge_13_8_0_0 <= 0
 inactive_no_flow_13_9_0_0: flow_13_9_0_0 - 1000 edge_13_9_0_0 <= 0
 inactive_no_flow_13_11_0_0: flow_13_11_0_0 - 1000 edge_13_11_0_0 <= 0
 inactive_no_flow_13_12_0_0: flow_13_12_0_0 - 1000 edge_13_12_0_0 <= 0
 inactive_no_flow_13_14_0_0: flow_13_14_0_0 - 1000 edge_13_14_0_0 <= 0
 inactive_no_flow_14_12_0_0: flow_14_12_0_0 - 1000 edge_14_12_0_0 <= 0
 inactive_no_flow_14_13_0_0: flow_14_13_0_0 - 1000 edge_14_13_0_0 <= 0
Bounds
Binaries
 edge_0_1_0_0 edge_0_3_0_0 edge_0_4_0_0 edge_0_6_0_0 edge_0_7_0_0
 edge_0_8_0_0 edge_0_9_0_0 edge_0_10_0_0 edge_0_11_0_0 edge_0_12_0_0
 edge_0_13_0_0 edge_1_3_0_0 edge_1_12_0_0 edge_2_7_0_0 edge_2_8_0_0
 edge_2_11_0_0 edge_3_1_0_0 edge_3_2_0_0 edge_3_4_0_0 edge_3_6_0_0
 edge_3_7_0_0 edge_3_8_0_0 edge_3_9_0_0 edge_3_10_0_0 edge_3_11_0_0
 edge_3_12_0_0 edge_3_13_0_0 edge_3_14_0_0 edge_4_1_0_0 edge_4_2_0_0
 edge_4_3_0_0 edge_4_5_0_0 edge_4_6_0_0 edge_4_7_0_0 edge_4_8_0_0
 edge_4_9_0_0 edge_4_10_0_0 edge_4_11_0_0 edge_4_12_0_0 edge_4_13_0_0
 edge_4_14_0_0 edge_5_4_0_0 edge_5_6_0_0 edge_5_7_0_0 edge_6_2_0_0
 edge_6_3_0_0 edge_6_4_0_0 edge_6_5_0_0 edge_6_7_0_0 edge_6_8_0_0
 edge_6_9_0_0 edge_6_11_0_0 edge_6_12_0_0 edge_6_13_0_0 edge_6_14_0_0
 edge_7_2_0_0 edge_7_3_0_0 edge_7_4_0_0 edge_7_5_0_0 edge_7_6_0_0
 edge_7_8_0_0 edge_7_9_0_0 edge_7_11_0_0 edge_7_14_0_0 edge_8_2_0_0
 edge_8_3_0_0 edge_8_4_0_0 edge_8_6_0_0 edge_8_7_0_0 edge_8_9_0_0
 edge_8_10_0_0 edge_8_11_0_0 edge_8_12_0_0 edge_8_13_0_0 edge_8_14_0_0
 edge_9_2_0_0 edge_9_3_0_0 edge_9_4_0_0 edge_9_5_0_0 edge_9_6_0_0
 edge_9_7_0_0 edge_9_8_0_0 edge_9_10_0_0 edge_9_11_0_0 edge_9_12_0_0
 edge_9_13_0_0 edge_9_14_0_0 edge_10_1_0_0 edge_10_2_0_0 edge_10_3_0_0
 edge_10_4_0_0 edge_10_5_0_0 edge_10_6_0_0 edge_10_7_0_0 edge_10_8_0_0
 edge_10_9_0_0 edge_10_10_0_0 edge_10_11_0_0 edge_10_12_0_0 edge_11_1_0_0
 edge_11_2_0_0 edge_11_3_0_0 edge_11_4_0_0 edge_11_5_0_0 edge_11_6_0_0
 edge_11_7_0_0 edge_11_8_0_0 edge_11_9_0_0 edge_11_10_0_0 edge_11_12_0_0
 edge_11_13_0_0 edge_11_14_0_0 edge_12_1_0_0 edge_12_2_0_0 edge_12_3_0_0
 edge_12_4_0_0 edge_12_5_0_0 edge_12_6_0_0 edge_12_7_0_0 edge_12_8_0_0
 edge_12_9_0_0 edge_12_10_0_0 edge_12_11_0_0 edge_12_13_0_0 edge_12_14_0_0
 edge_13_3_0_0 edge_13_4_0_0 edge_13_6_0_0 edge_13_7_0_0 edge_13_8_0_0
 edge_13_9_0_0 edge_13_11_0_0 edge_13_12_0_0 edge_13_14_0_0 edge_14_12_0_0
 edge_14_13_0_0
End
